plate_width = 37;
n_circuits = 27;
n_shapes = 52;
widths = [3, 3, 3, 3, 3, 3, 3, 3, 3, 3, 3, 3, 3, 3, 4, 4, 4, 4, 4, 4, 4, 5, 5, 5, 5, 5, 12];
lengths = [3, 4, 5, 6, 7, 8, 9, 11, 12, 13, 14, 17, 18, 21, 3, 4, 5, 6, 10, 22, 24, 3, 4, 6, 10, 14, 37];
sizes = [| 3, 3 | 3, 4 | 4, 3 | 3, 5 | 5, 3 | 3, 6 | 6, 3 | 3, 7 | 7, 3 | 3, 8 | 8, 3 | 3, 9 | 9, 3 | 3, 11 | 11, 3 | 3, 12 | 12, 3 | 3, 13 | 13, 3 | 3, 14 | 14, 3 | 3, 17 | 17, 3 | 3, 18 | 18, 3 | 3, 21 | 21, 3 | 4, 3 | 3, 4 | 4, 4 | 4, 5 | 5, 4 | 4, 6 | 6, 4 | 4, 10 | 10, 4 | 4, 22 | 22, 4 | 4, 24 | 24, 4 | 5, 3 | 3, 5 | 5, 4 | 4, 5 | 5, 6 | 6, 5 | 5, 10 | 10, 5 | 5, 14 | 14, 5 | 12, 37 | 37, 12 |];
offsets = [| 0, 0 | 0, 0 | 0, 0 | 0, 0 | 0, 0 | 0, 0 | 0, 0 | 0, 0 | 0, 0 | 0, 0 | 0, 0 | 0, 0 | 0, 0 | 0, 0 | 0, 0 | 0, 0 | 0, 0 | 0, 0 | 0, 0 | 0, 0 | 0, 0 | 0, 0 | 0, 0 | 0, 0 | 0, 0 | 0, 0 | 0, 0 | 0, 0 | 0, 0 | 0, 0 | 0, 0 | 0, 0 | 0, 0 | 0, 0 | 0, 0 | 0, 0 | 0, 0 | 0, 0 | 0, 0 | 0, 0 | 0, 0 | 0, 0 | 0, 0 | 0, 0 | 0, 0 | 0, 0 | 0, 0 | 0, 0 | 0, 0 | 0, 0 | 0, 0 | 0, 0 |];
shapes = [{1}, {2}, {3}, {4}, {5}, {6}, {7}, {8}, {9}, {10}, {11}, {12}, {13}, {14}, {15}, {16}, {17}, {18}, {19}, {20}, {21}, {22}, {23}, {24}, {25}, {26}, {27}, {28}, {29}, {30}, {31}, {32}, {33}, {34}, {35}, {36}, {37}, {38}, {39}, {40}, {41}, {42}, {43}, {44}, {45}, {46}, {47}, {48}, {49}, {50}, {51}, {52}];
valid_shapes = [{1}, {2, 3}, {4, 5}, {6, 7}, {8, 9}, {10, 11}, {12, 13}, {14, 15}, {16, 17}, {18, 19}, {20, 21}, {22, 23}, {24, 25}, {26, 27}, {28, 29}, {30}, {32, 31}, {33, 34}, {35, 36}, {37, 38}, {40, 39}, {41, 42}, {43, 44}, {45, 46}, {48, 47}, {49, 50}, {51, 52}];